SECTION Graph 
Nodes 701
Edges 1352
E 1 16 1
E 1 621 35
E 1 640 2
E 2 17 1
E 2 641 2
E 2 642 2
E 3 648 6
E 3 649 1
E 4 646 6
E 4 648 2
E 5 606 2
E 5 609 1
E 5 614 1
E 5 622 5
E 6 8 1
E 6 630 1
E 6 649 42
E 7 9 1
E 7 609 1
E 7 614 1
E 7 625 6
E 8 10 1
E 8 629 1
E 9 582 36
E 9 607 1
E 9 623 6
E 10 628 1
E 11 24 5
E 11 567 1
E 12 25 5
E 12 567 1
E 12 573 1
E 12 579 6
E 13 14 1
E 13 570 11
E 14 573 11
E 14 628 43
E 15 631 1
E 15 632 6
E 16 17 1
E 16 619 35
E 16 635 2
E 17 636 2
E 17 639 2
E 18 600 35
E 18 631 6
E 18 632 1
E 18 633 6
E 19 632 2
E 19 637 6
E 20 26 1
E 20 553 41
E 20 585 1
E 20 587 5
E 21 598 1
E 21 599 1
E 21 604 2
E 21 611 5
E 22 23 1
E 22 478 43
E 22 563 11
E 23 481 43
E 23 556 5
E 23 564 11
E 24 476 55
E 24 565 1
E 25 564 1
E 25 565 1
E 25 569 5
E 26 28 1
E 26 552 41
E 26 584 1
E 27 29 1
E 27 588 6
E 27 598 1
E 27 599 1
E 28 550 41
E 28 557 36
E 28 583 1
E 29 571 36
E 29 586 6
E 29 596 1
E 30 477 41
E 30 544 1
E 30 545 1
E 31 33 1
E 31 562 1
E 31 592 41
E 32 34 1
E 32 544 1
E 32 545 1
E 32 561 11
E 33 35 1
E 33 561 1
E 33 589 41
E 34 542 1
E 34 543 1
E 34 559 11
E 35 553 5
E 35 559 1
E 35 587 41
E 36 454 3
E 36 458 2
E 36 465 1
E 36 466 1
E 37 462 3
E 37 465 1
E 37 471 1
E 37 497 13
E 38 39 1
E 38 467 11
E 38 490 1
E 38 495 1
E 39 471 11
E 39 498 1
E 39 515 13
E 40 141 1
E 40 493 5
E 40 502 1
E 40 509 6
E 41 141 1
E 41 486 11
E 41 507 1
E 41 513 6
E 42 142 1
E 42 513 9
E 42 526 1
E 42 531 3
E 43 502 6
E 43 506 4
E 43 509 1
E 43 523 9
E 44 507 6
E 44 513 1
E 44 519 3
E 44 526 9
E 45 143 1
E 45 281 15
E 45 341 9
E 46 143 1
E 46 314 2
E 46 320 2
E 46 347 9
E 47 144 1
E 47 341 6
E 47 442 23
E 48 144 1
E 48 347 6
E 48 374 2
E 48 449 23
E 49 278 24
E 49 341 1
E 49 436 29
E 50 320 9
E 50 347 2
E 50 359 2
E 50 374 6
E 51 52 1
E 51 306 24
E 51 375 1
E 51 385 1
E 52 308 24
E 52 389 1
E 52 397 4
E 53 58 13
E 53 421 1
E 53 430 1
E 53 431 2
E 54 429 1
E 54 430 1
E 54 440 2
E 54 448 4
E 55 56 1
E 55 274 24
E 55 321 1
E 55 330 1
E 56 275 24
E 56 334 1
E 56 335 1
E 57 326 13
E 57 370 1
E 57 377 1
E 57 380 2
E 58 376 1
E 58 377 1
E 58 390 2
E 59 60 1
E 59 424 1
E 59 425 1
E 59 468 12
E 60 62 12
E 60 428 1
E 60 434 1
E 61 425 12
E 61 459 3
E 61 468 1
E 61 508 23
E 62 468 1
E 62 473 1
E 62 474 1
E 63 292 2
E 63 295 1
E 63 300 1
E 63 315 10
E 64 300 10
E 64 315 1
E 64 317 1
E 64 322 3
E 65 66 10
E 65 280 1
E 65 281 1
E 65 287 1
E 66 307 1
E 66 313 3
E 67 68 2
E 67 371 4
E 67 383 1
E 67 415 9
E 68 378 4
E 68 396 1
E 68 423 9
E 69 423 6
E 69 437 2
E 70 383 9
E 70 392 7
E 70 415 1
E 70 433 6
E 71 396 9
E 71 423 1
E 72 289 6
E 72 301 1
E 72 303 1
E 72 310 5
E 73 310 6
E 73 318 1
E 73 324 1
E 73 339 4
E 74 298 6
E 74 301 5
E 74 310 1
E 74 318 6
E 75 303 5
E 75 310 1
E 75 324 6
E 75 349 12
E 76 77 10
E 76 88 7
E 76 215 3
E 76 222 1
E 77 89 7
E 77 234 1
E 77 235 1
E 78 239 1
E 78 240 1
E 78 252 6
E 78 253 6
E 79 80 10
E 79 183 3
E 79 193 3
E 80 203 3
E 80 278 44
E 81 203 1
E 81 213 5
E 81 280 41
E 82 260 37
E 82 348 1
E 82 353 1
E 82 356 2
E 83 360 10
E 83 394 1
E 84 85 10
E 84 232 7
E 84 241 2
E 84 261 7
E 85 87 7
E 85 272 1
E 85 282 7
E 86 93 3
E 86 221 6
E 86 228 1
E 86 238 7
E 87 232 10
E 87 239 6
E 87 252 1
E 88 89 10
E 88 199 7
E 88 202 3
E 89 91 7
E 89 226 1
E 90 95 3
E 90 189 6
E 90 199 3
E 90 202 7
E 91 199 10
E 91 210 1
E 91 216 1
E 92 98 7
E 92 197 6
E 92 201 1
E 92 220 10
E 93 214 6
E 93 223 1
E 93 233 7
E 94 103 7
E 94 171 1
E 94 172 1
E 94 188 10
E 95 188 3
E 95 191 1
E 95 200 7
E 96 115 7
E 96 304 1
E 96 328 10
E 97 247 37
E 97 323 2
E 97 337 1
E 97 338 1
E 98 99 10
E 98 211 1
E 98 304 46
E 99 220 7
E 99 231 2
E 99 242 9
E 100 110 5
E 100 192 3
E 100 197 1
E 100 201 6
E 101 102 10
E 101 103 7
E 101 192 1
E 101 194 1
E 102 104 7
E 102 205 1
E 102 208 3
E 103 104 10
E 103 180 1
E 104 188 7
E 104 200 3
E 105 113 5
E 105 161 3
E 105 167 1
E 105 171 6
E 106 107 10
E 106 161 1
E 106 167 3
E 107 176 3
E 107 177 3
E 108 109 10
E 108 120 7
E 108 165 3
E 108 173 3
E 109 121 7
E 109 184 1
E 109 187 3
E 110 184 3
E 110 187 1
E 110 196 6
E 111 112 10
E 111 151 3
E 111 154 3
E 112 158 1
E 112 160 3
E 113 158 3
E 113 160 1
E 113 166 6
E 114 190 46
E 114 259 1
E 114 266 1
E 114 269 2
E 115 271 10
E 115 290 1
E 116 117 10
E 116 179 7
E 116 190 2
E 116 269 46
E 117 119 7
E 117 204 1
E 117 290 46
E 118 125 3
E 118 169 6
E 118 175 1
E 118 186 7
E 119 179 10
E 119 187 6
E 119 196 1
E 120 121 10
E 120 156 7
E 120 159 3
E 121 123 7
E 121 174 1
E 122 127 3
E 122 153 6
E 122 156 3
E 122 159 7
E 123 156 10
E 123 160 6
E 123 166 1
E 124 130 7
E 124 155 6
E 124 168 10
E 125 164 6
E 125 170 1
E 125 181 7
E 126 135 7
E 126 145 6
E 126 146 1
E 126 152 10
E 127 150 6
E 127 152 3
E 127 157 7
E 128 227 1
E 128 230 1
E 129 178 46
E 129 243 2
E 129 250 1
E 129 251 1
E 130 131 10
E 130 227 46
E 131 168 7
E 131 178 2
E 131 243 46
E 132 149 10
E 132 155 1
E 133 134 10
E 133 135 7
E 133 155 3
E 134 136 7
E 134 162 3
E 134 163 3
E 135 136 10
E 135 149 1
E 136 152 7
E 136 157 3
E 137 145 1
E 137 146 6
E 138 139 10
E 138 145 3
E 139 147 3
E 139 148 3
E 140 230 148
E 141 496 5
E 141 511 6
E 142 511 9
E 142 524 1
E 142 529 3
E 143 313 2
E 143 345 9
E 144 345 6
E 144 445 23
E 145 147 10
E 146 149 7
E 147 150 3
E 147 152 6
E 148 150 3
E 148 151 3
E 150 153 3
E 151 153 3
E 153 154 3
E 154 156 6
E 154 160 10
E 155 162 10
E 157 159 3
E 157 163 7
E 158 161 5
E 159 165 7
E 162 164 3
E 162 168 6
E 163 164 3
E 163 165 3
E 164 169 3
E 165 169 3
E 166 171 5
E 166 174 7
E 167 172 5
E 167 176 10
E 168 170 2
E 169 173 3
E 170 178 7
E 171 180 7
E 172 185 10
E 173 179 6
E 173 187 10
E 174 180 5
E 174 184 7
E 175 179 2
E 175 190 7
E 176 182 3
E 176 185 5
E 177 182 3
E 177 183 3
E 178 181 1
E 180 192 7
E 181 186 3
E 181 251 46
E 182 189 3
E 182 191 5
E 183 189 3
E 184 192 5
E 185 188 1
E 185 191 3
E 186 190 1
E 186 259 46
E 189 193 3
E 191 198 6
E 193 198 5
E 193 203 10
E 194 195 1
E 194 205 10
E 195 197 1
E 195 206 10
E 196 201 5
E 196 204 7
E 197 207 10
E 198 199 1
E 198 210 10
E 200 202 3
E 200 208 7
E 201 211 7
E 202 215 7
E 203 210 5
E 204 211 5
E 205 206 1
E 205 209 3
E 206 207 1
E 206 212 3
E 207 214 3
E 207 220 6
E 208 209 1
E 208 215 3
E 209 212 1
E 209 217 3
E 210 213 1
E 212 214 1
E 212 219 3
E 213 216 1
E 213 295 41
E 214 221 3
E 215 217 1
E 216 218 1
E 216 297 41
E 217 219 1
E 217 222 3
E 218 226 6
E 218 299 41
E 219 221 1
E 219 224 3
E 220 223 2
E 221 225 3
E 222 224 1
E 222 234 10
E 223 231 7
E 224 225 1
E 224 236 10
E 225 232 6
E 225 239 10
E 226 235 7
E 226 256 17
E 227 229 1
E 228 232 2
E 228 241 7
E 229 230 1
E 229 243 9
E 230 246 9
E 231 233 1
E 231 244 8
E 233 238 3
E 233 338 46
E 234 236 1
E 234 237 1
E 235 237 1
E 235 245 6
E 236 239 1
E 236 240 1
E 237 240 1
E 237 248 6
E 238 241 1
E 238 348 46
E 240 249 6
E 241 255 7
E 242 247 2
E 242 323 37
E 243 246 1
E 244 247 1
E 244 257 5
E 245 248 1
E 245 258 5
E 246 250 2
E 247 260 5
E 248 249 1
E 248 262 5
E 249 253 1
E 249 265 5
E 250 254 1
E 251 254 1
E 251 259 3
E 252 270 6
E 252 272 7
E 253 268 5
E 253 270 6
E 254 263 3
E 255 257 1
E 255 261 2
E 256 273 7
E 256 309 24
E 257 260 1
E 257 264 2
E 258 262 1
E 258 273 6
E 259 263 1
E 260 267 2
E 261 264 1
E 261 282 10
E 262 265 1
E 262 274 6
E 263 266 1
E 264 267 1
E 264 284 10
E 265 268 1
E 265 275 6
E 266 271 2
E 267 288 10
E 267 356 37
E 268 276 6
E 268 277 6
E 269 271 1
E 269 290 10
E 270 276 5
E 270 279 6
E 272 283 6
E 272 285 7
E 273 274 1
E 273 321 24
E 274 275 1
E 275 277 1
E 276 293 6
E 276 294 6
E 277 294 6
E 277 334 24
E 278 281 1
E 279 283 1
E 279 293 5
E 280 295 5
E 282 284 1
E 282 285 1
E 283 286 1
E 283 296 5
E 284 288 1
E 284 289 1
E 285 289 1
E 285 301 6
E 286 298 5
E 286 301 6
E 287 292 2
E 287 307 10
E 288 291 1
E 288 394 37
E 289 291 1
E 290 304 7
E 291 303 6
E 292 312 10
E 293 296 1
E 293 305 6
E 294 305 6
E 294 355 24
E 295 297 1
E 296 298 1
E 296 306 6
E 297 299 1
E 297 300 1
E 298 308 6
E 299 302 1
E 299 309 6
E 300 302 1
E 302 311 6
E 302 317 10
E 303 329 12
E 304 323 10
E 305 306 1
E 305 375 24
E 306 308 1
E 307 312 2
E 307 314 3
E 308 318 6
E 309 311 1
E 309 321 7
E 311 325 7
E 312 315 2
E 312 316 3
E 313 314 1
E 314 316 2
E 315 319 3
E 316 319 2
E 316 320 2
E 317 326 3
E 317 362 13
E 318 333 4
E 319 322 1
E 319 327 2
E 320 327 2
E 321 325 1
E 322 326 1
E 322 331 2
E 323 328 1
E 324 344 4
E 324 367 12
E 325 330 1
E 325 362 10
E 326 336 2
E 327 331 1
E 327 359 9
E 328 337 2
E 329 332 1
E 329 349 5
E 330 335 1
E 330 365 10
E 331 336 1
E 331 363 9
E 332 343 2
E 332 351 5
E 333 339 1
E 333 364 9
E 334 340 1
E 334 355 6
E 335 340 1
E 335 369 10
E 336 366 9
E 336 380 13
E 337 342 1
E 338 342 1
E 338 348 3
E 339 344 1
E 339 368 9
E 340 379 12
E 341 345 1
E 342 350 3
E 343 346 1
E 343 357 5
E 344 352 3
E 344 372 9
E 345 347 1
E 346 361 5
E 346 394 28
E 348 350 1
E 349 351 1
E 349 367 6
E 350 353 1
E 351 357 2
E 351 371 6
E 352 354 1
E 352 384 9
E 353 360 2
E 354 358 1
E 354 387 9
E 355 375 6
E 356 360 1
E 356 394 10
E 357 361 1
E 357 378 6
E 358 383 7
E 358 392 9
E 359 363 1
E 359 381 6
E 361 382 6
E 362 365 1
E 362 370 2
E 363 366 1
E 363 386 6
E 364 368 1
E 364 388 6
E 365 369 1
E 365 373 2
E 366 391 6
E 366 412 13
E 367 371 1
E 367 383 4
E 368 372 1
E 368 393 6
E 369 376 2
E 369 414 13
E 370 373 1
E 371 378 2
E 372 384 3
E 372 395 6
E 373 376 1
E 373 377 1
E 374 381 2
E 374 458 23
E 375 379 1
E 376 421 13
E 377 472 28
E 378 382 1
E 379 385 1
E 379 414 10
E 380 390 2
E 380 412 9
E 381 386 1
E 381 398 5
E 382 396 4
E 384 387 1
E 384 402 6
E 385 389 1
E 385 416 10
E 386 391 1
E 386 401 5
E 387 392 1
E 387 406 6
E 388 393 1
E 388 403 5
E 389 400 4
E 389 420 10
E 390 417 9
E 390 431 13
E 391 405 5
E 391 432 13
E 392 409 6
E 393 395 1
E 393 407 5
E 395 402 3
E 395 410 5
E 397 399 1
E 397 400 1
E 398 401 1
E 398 418 6
E 399 403 1
E 399 404 1
E 400 404 1
E 400 435 10
E 401 405 1
E 401 422 6
E 402 406 1
E 402 419 5
E 403 407 1
E 403 408 1
E 404 408 1
E 404 439 10
E 405 427 6
E 405 453 13
E 406 409 1
E 406 424 5
E 407 410 1
E 407 411 1
E 408 411 1
E 408 443 10
E 409 428 5
E 409 433 7
E 410 413 1
E 410 419 3
E 411 413 1
E 411 446 10
E 412 417 2
E 412 432 6
E 413 425 3
E 413 450 10
E 414 416 1
E 414 421 2
E 415 423 2
E 415 437 6
E 416 420 1
E 416 426 2
E 417 441 6
E 417 464 13
E 418 422 1
E 418 454 9
E 419 424 1
E 419 425 1
E 420 429 2
E 420 435 4
E 421 426 1
E 422 427 1
E 422 457 9
E 424 428 1
E 426 429 1
E 426 430 1
E 427 462 9
E 427 470 13
E 429 444 4
E 430 505 28
E 431 440 2
E 431 464 9
E 432 441 2
E 432 453 5
E 433 437 1
E 433 438 11
E 434 438 1
E 434 473 12
E 435 439 1
E 435 444 2
E 436 442 1
E 436 476 12
E 438 477 12
E 439 443 1
E 439 447 2
E 440 469 9
E 441 461 5
E 441 480 13
E 442 445 1
E 442 478 12
E 443 446 1
E 443 451 2
E 444 447 1
E 444 448 1
E 445 449 1
E 445 481 12
E 446 450 1
E 446 455 2
E 447 451 1
E 447 452 1
E 448 452 1
E 448 479 11
E 449 458 2
E 449 483 12
E 450 459 2
E 451 455 1
E 451 456 1
E 452 456 1
E 452 482 11
E 453 461 2
E 453 470 6
E 454 457 1
E 455 459 1
E 455 460 1
E 456 460 1
E 456 484 11
E 457 462 1
E 457 465 3
E 458 487 12
E 459 463 1
E 460 463 1
E 460 486 11
E 461 475 6
E 461 502 19
E 462 489 13
E 463 474 5
E 463 488 11
E 464 469 2
E 464 480 6
E 465 467 1
E 466 467 1
E 466 490 11
E 467 471 1
E 468 510 23
E 469 479 4
E 469 485 6
E 470 472 1
E 470 489 9
E 471 499 13
E 472 475 1
E 473 477 1
E 473 544 41
E 474 512 22
E 475 494 9
E 475 503 13
E 476 478 1
E 478 481 1
E 479 482 1
E 479 491 6
E 480 485 2
E 480 503 11
E 481 483 1
E 482 484 1
E 482 493 6
E 483 487 2
E 484 486 1
E 484 496 6
E 485 491 4
E 485 506 11
E 486 488 1
E 487 490 2
E 488 500 6
E 489 494 2
E 489 497 3
E 490 492 1
E 491 493 1
E 491 502 5
E 492 495 1
E 492 554 41
E 493 496 1
E 494 501 3
E 494 514 13
E 495 498 1
E 495 555 41
E 496 500 2
E 497 499 1
E 497 501 2
E 498 550 36
E 498 557 41
E 499 504 2
E 499 515 11
E 500 507 5
E 501 504 1
E 501 518 13
E 503 505 1
E 503 514 9
E 504 517 11
E 504 528 19
E 505 506 1
E 506 516 9
E 507 508 3
E 508 510 1
E 508 519 6
E 509 511 1
E 509 524 9
E 510 512 1
E 510 520 6
E 511 513 1
E 512 522 6
E 514 516 2
E 514 518 3
E 515 517 2
E 516 521 3
E 516 523 4
E 517 546 19
E 518 521 2
E 519 520 1
E 519 533 9
E 520 522 1
E 520 536 9
E 521 525 4
E 522 538 9
E 523 524 1
E 523 525 3
E 524 527 3
E 525 527 1
E 525 528 1
E 526 533 3
E 526 534 3
E 527 529 1
E 527 530 1
E 528 530 1
E 528 546 11
E 529 531 1
E 529 532 1
E 530 532 1
E 530 547 11
E 531 534 1
E 531 535 1
E 532 535 1
E 532 548 11
E 533 536 1
E 533 539 3
E 534 537 1
E 534 539 3
E 535 537 1
E 535 549 11
E 536 538 1
E 536 540 3
E 537 541 3
E 537 551 11
E 538 542 3
E 539 540 1
E 539 541 1
E 540 542 1
E 540 543 1
E 541 543 1
E 542 544 1
E 545 562 11
E 546 547 1
E 547 548 1
E 548 549 1
E 548 550 1
E 549 551 1
E 549 552 1
E 550 552 1
E 551 553 1
E 551 559 5
E 552 553 1
E 554 555 1
E 554 556 1
E 555 557 1
E 555 558 1
E 556 558 1
E 556 566 11
E 557 560 1
E 558 560 1
E 558 568 11
E 559 561 1
E 560 571 11
E 560 583 36
E 561 562 1
E 563 564 1
E 563 565 1
E 564 566 5
E 565 567 5
E 566 568 1
E 566 569 1
E 567 570 1
E 568 571 1
E 568 572 1
E 569 572 1
E 570 573 1
E 571 574 1
E 572 574 1
E 572 575 2
E 573 581 6
E 574 576 2
E 574 596 36
E 575 576 1
E 575 577 1
E 576 578 1
E 576 601 36
E 577 578 1
E 577 579 2
E 578 580 2
E 578 603 36
E 579 580 1
E 579 581 1
E 580 582 1
E 580 607 36
E 581 582 1
E 583 584 1
E 583 586 5
E 584 585 1
E 584 588 5
E 585 590 5
E 585 591 5
E 586 588 1
E 587 589 1
E 587 590 1
E 588 591 1
E 589 592 1
E 589 593 1
E 590 593 1
E 590 595 5
E 591 595 5
E 591 598 6
E 592 594 1
E 592 631 35
E 593 594 1
E 593 597 5
E 594 600 5
E 595 597 1
E 595 608 6
E 596 599 1
E 596 601 2
E 597 600 1
E 597 610 6
E 598 608 5
E 599 602 2
E 600 612 6
E 601 602 1
E 601 603 1
E 602 604 1
E 602 605 1
E 603 605 1
E 603 607 2
E 604 606 1
E 604 616 5
E 605 606 1
E 605 609 2
E 606 618 5
E 607 609 1
E 608 610 1
E 608 611 1
E 610 612 1
E 610 613 1
E 611 613 1
E 611 616 2
E 612 615 1
E 612 633 35
E 613 615 1
E 613 617 2
E 614 627 6
E 614 643 42
E 615 619 2
E 615 635 35
E 616 617 1
E 616 618 1
E 617 619 1
E 617 620 1
E 618 620 1
E 618 622 2
E 619 621 1
E 620 621 1
E 620 624 2
E 621 626 2
E 622 624 1
E 623 625 1
E 623 628 5
E 624 626 1
E 625 627 1
E 625 629 5
E 626 640 35
E 627 630 5
E 627 647 42
E 628 629 1
E 629 630 1
E 632 634 6
E 633 634 1
E 633 635 1
E 634 636 1
E 634 637 2
E 635 636 1
E 636 638 2
E 637 638 1
E 638 639 2
E 639 641 1
E 640 642 1
E 640 643 1
E 641 645 2
E 642 644 1
E 642 645 2
E 643 644 1
E 643 647 6
E 644 646 2
E 644 648 6
E 645 646 1
E 647 648 1
E 647 649 6
E 1 650 100000
E 2 650 100000
E 3 650 100000
E 4 650 100000
E 5 651 100000
E 6 651 100000
E 7 652 100000
E 8 652 100000
E 9 653 100000
E 10 653 100000
E 11 654 100000
E 12 654 100000
E 13 654 100000
E 14 654 100000
E 15 655 100000
E 16 655 100000
E 17 655 100000
E 18 655 100000
E 19 655 100000
E 20 656 100000
E 21 656 100000
E 22 657 100000
E 23 657 100000
E 24 657 100000
E 25 657 100000
E 26 658 100000
E 27 658 100000
E 28 659 100000
E 29 659 100000
E 30 660 100000
E 31 660 100000
E 32 661 100000
E 33 661 100000
E 34 662 100000
E 35 662 100000
E 36 663 100000
E 37 663 100000
E 38 663 100000
E 39 663 100000
E 40 664 100000
E 41 664 100000
E 42 664 100000
E 43 664 100000
E 44 664 100000
E 45 665 100000
E 46 665 100000
E 47 665 100000
E 48 665 100000
E 49 665 100000
E 50 665 100000
E 51 666 100000
E 52 666 100000
E 53 666 100000
E 54 666 100000
E 55 667 100000
E 56 667 100000
E 57 667 100000
E 58 667 100000
E 59 668 100000
E 60 668 100000
E 61 668 100000
E 62 668 100000
E 63 669 100000
E 64 669 100000
E 65 670 100000
E 66 670 100000
E 67 671 100000
E 68 671 100000
E 69 671 100000
E 70 671 100000
E 71 671 100000
E 72 672 100000
E 73 672 100000
E 74 672 100000
E 75 672 100000
E 76 673 100000
E 77 673 100000
E 78 673 100000
E 79 674 100000
E 80 674 100000
E 81 674 100000
E 82 675 100000
E 83 675 100000
E 84 676 100000
E 85 676 100000
E 86 677 100000
E 87 677 100000
E 88 678 100000
E 89 678 100000
E 90 679 100000
E 91 679 100000
E 92 680 100000
E 93 680 100000
E 94 681 100000
E 95 681 100000
E 96 682 100000
E 97 682 100000
E 98 683 100000
E 99 683 100000
E 100 684 100000
E 101 684 100000
E 102 684 100000
E 103 685 100000
E 104 685 100000
E 105 686 100000
E 106 686 100000
E 107 686 100000
E 108 687 100000
E 109 687 100000
E 110 687 100000
E 111 688 100000
E 112 688 100000
E 113 688 100000
E 114 689 100000
E 115 689 100000
E 116 690 100000
E 117 690 100000
E 118 691 100000
E 119 691 100000
E 120 692 100000
E 121 692 100000
E 122 693 100000
E 123 693 100000
E 124 694 100000
E 125 694 100000
E 126 695 100000
E 127 695 100000
E 128 696 100000
E 129 696 100000
E 130 697 100000
E 131 697 100000
E 132 698 100000
E 133 698 100000
E 134 698 100000
E 135 699 100000
E 136 699 100000
E 137 700 100000
E 138 700 100000
E 139 700 100000
E 140 701 100000
E 141 664 100000
E 142 664 100000
E 143 665 100000
E 144 665 100000
END 

SECTION Terminals 
Terminals 52
TP 650 676
TP 651 677
TP 652 678
TP 653 679
TP 654 680
TP 655 681
TP 656 682
TP 657 683
TP 658 684
TP 659 685
TP 660 686
TP 661 687
TP 662 688
TP 663 689
TP 664 690
TP 665 691
TP 666 692
TP 667 693
TP 668 694
TP 669 695
TP 670 696
TP 671 697
TP 672 698
TP 673 699
TP 674 700
TP 675 701
END 
